1000
400 400
1 320 68
2 320 331
3 320 497
4 320 484
5 319 960
6 319 250
7 319 529
8 319 854
9 319 766
10 318 863
11 318 650
12 318 528
13 318 597
14 318 406
15 318 751
16 317 171
17 317 948
18 317 793
19 316 200
20 316 916
21 316 362
22 316 745
23 316 951
24 316 395
25 315 315
26 315 537
27 315 712
28 314 105
29 314 797
30 314 313
31 313 192
32 313 530
33 313 235
34 313 324
35 313 274
36 313 942
37 313 472
38 312 808
39 312 835
40 312 610
41 312 495
42 311 238
43 311 525
44 310 911
45 310 246
46 310 221
47 310 529
48 310 938
49 309 894
50 309 491
51 308 198
52 308 256
53 308 731
54 307 468
55 306 339
56 306 426
57 306 241
58 306 309
59 305 341
60 305 776
61 305 152
62 305 261
63 305 946
64 305 239
65 304 112
66 303 302
67 303 984
68 303 934
69 303 874
70 302 158
71 302 58
72 302 431
73 302 813
74 300 842
75 300 356
76 300 203
77 299 354
78 299 447
79 299 830
80 298 924
81 298 215
82 298 560
83 298 153
84 297 385
85 297 213
86 297 344
87 297 478
88 297 460
89 297 76
90 297 494
91 297 138
92 296 878
93 295 583
94 295 408
95 295 618
96 294 460
97 294 926
98 294 126
99 293 933
100 293 818
101 293 954
102 293 481
103 292 352
104 292 67
105 291 674
106 291 701
107 291 698
108 290 479
109 290 771
110 290 412
111 290 765
112 290 279
113 289 893
114 289 818
115 289 738
116 289 174
117 289 281
118 288 980
119 288 272
120 288 958
121 288 18
122 288 702
123 288 370
124 288 23
125 288 310
126 288 235
127 288 805
128 287 260
129 287 280
130 287 376
131 286 790
132 286 84
133 286 131
134 286 514
135 286 712
136 285 803
137 285 901
138 285 822
139 285 600
140 285 683
141 284 796
142 284 834
143 283 975
144 283 214
145 283 919
146 283 336
147 283 511
148 282 668
149 282 426
150 282 266
151 282 749
152 282 173
153 282 20
154 282 948
155 282 598
156 281 0
157 280 871
158 279 254
159 279 350
160 279 887
161 278 975
162 278 227
163 278 533
164 278 877
165 278 711
166 278 771
167 278 636
168 277 31
169 277 286
170 277 160
171 277 423
172 276 812
173 275 272
174 275 31
175 275 828
176 275 744
177 275 947
178 274 11
179 274 669
180 274 236
181 274 578
182 274 487
183 273 805
184 273 845
185 273 244
186 273 114
187 273 335
188 272 24
189 272 210
190 272 267
191 272 198
192 272 985
193 271 823
194 271 182
195 271 638
196 271 714
197 271 470
198 271 694
199 271 875
200 270 73
201 270 895
202 270 94
203 269 425
204 269 40
205 269 377
206 269 702
207 269 526
208 269 833
209 269 451
210 268 250
211 267 710
212 267 178
213 267 527
214 267 86
215 266 177
216 266 532
217 266 232
218 266 7
219 265 735
220 265 126
221 265 275
222 264 923
223 264 955
224 264 740
225 263 994
226 263 471
227 262 227
228 262 92
229 262 674
230 262 68
231 262 527
232 261 307
233 261 638
234 261 447
235 261 99
236 261 428
237 260 101
238 258 295
239 258 260
240 258 699
241 258 347
242 258 290
243 258 145
244 257 79
245 257 485
246 256 200
247 256 855
248 256 835
249 256 632
250 256 668
251 255 221
252 255 354
253 254 544
254 254 523
255 253 292
256 253 189
257 253 621
258 253 486
259 252 969
260 252 287
261 252 300
262 252 142
263 251 596
264 251 191
265 251 732
266 251 295
267 251 660
268 250 880
269 250 374
270 250 511
271 250 183
272 249 49
273 249 645
274 249 287
275 248 755
276 248 233
277 248 883
278 248 416
279 248 198
280 248 133
281 247 741
282 247 218
283 247 576
284 247 253
285 246 310
286 245 889
287 245 676
288 245 177
289 245 640
290 244 858
291 244 159
292 244 434
293 244 469
294 244 934
295 243 827
296 243 126
297 243 814
298 242 989
299 241 214
300 241 649
301 240 455
302 240 758
303 240 302
304 239 588
305 239 682
306 239 455
307 239 939
308 239 108
309 238 356
310 237 663
311 237 975
312 237 288
313 236 839
314 235 262
315 235 895
316 235 74
317 235 811
318 235 206
319 235 541
320 234 419
321 233 220
322 233 817
323 233 127
324 233 213
325 233 577
326 233 457
327 232 705
328 232 874
329 231 53
330 231 923
331 231 469
332 231 954
333 231 143
334 230 524
335 230 190
336 230 686
337 229 198
338 229 155
339 229 288
340 229 300
341 229 544
342 228 999
343 228 452
344 227 938
345 227 772
346 226 733
347 226 347
348 226 318
349 225 375
350 225 791
351 225 540
352 224 50
353 223 904
354 223 639
355 222 627
356 222 956
357 222 910
358 222 545
359 221 306
360 221 10
361 221 393
362 221 947
363 220 310
364 220 543
365 220 667
366 219 538
367 219 388
368 219 404
369 219 396
370 218 955
371 217 415
372 217 820
373 217 624
374 217 479
375 217 49
376 216 389
377 216 806
378 216 147
379 216 913
380 216 735
381 216 697
382 215 290
383 215 47
384 214 160
385 214 710
386 214 299
387 214 884
388 214 952
389 214 7
390 213 129
391 213 799
392 213 565
393 213 438
394 213 144
395 212 853
396 212 357
397 211 15
398 211 807
399 211 998
400 210 902
401 209 886
402 208 191
403 208 405
404 208 89
405 208 620
406 207 301
407 207 59
408 207 754
409 207 713
410 206 542
411 206 32
412 206 777
413 206 975
414 205 518
415 205 975
416 205 726
417 205 274
418 205 828
419 204 933
420 204 740
421 204 226
422 204 8
423 204 583
424 203 363
425 203 84
426 203 624
427 202 883
428 202 485
429 202 266
430 201 901
431 201 843
432 200 147
433 200 2
434 200 994
435 200 429
436 200 221
437 199 942
438 199 871
439 199 31
440 199 500
441 198 57
442 198 997
443 198 548
444 198 406
445 198 676
446 198 100
447 197 737
448 197 518
449 197 193
450 196 102
451 196 513
452 196 329
453 196 655
454 196 740
455 195 572
456 195 592
457 195 34
458 194 429
459 193 220
460 193 45
461 192 452
462 192 869
463 191 898
464 191 202
465 191 36
466 191 488
467 190 239
468 190 564
469 190 801
470 190 285
471 190 135
472 190 170
473 189 836
474 189 83
475 189 674
476 189 517
477 189 766
478 189 466
479 188 500
480 188 852
481 188 913
482 188 83
483 187 358
484 187 560
485 187 606
486 186 962
487 186 746
488 186 761
489 186 361
490 185 764
491 185 284
492 184 921
493 184 309
494 184 289
495 183 877
496 183 540
497 182 540
498 182 52
499 182 336
500 182 597
501 181 812
502 181 23
503 181 779
504 181 511
505 181 876
506 181 15
507 180 853
508 179 271
509 179 214
510 178 89
511 178 720
512 177 253
513 177 266
514 177 50
515 177 183
516 177 733
517 177 510
518 177 93
519 176 315
520 176 782
521 176 601
522 176 589
523 176 383
524 175 772
525 175 389
526 174 772
527 174 130
528 174 970
529 173 256
530 173 574
531 173 290
532 173 321
533 172 477
534 172 520
535 172 107
536 171 244
537 171 744
538 170 727
539 170 765
540 170 219
541 170 119
542 170 511
543 169 917
544 168 935
545 168 585
546 168 605
547 167 329
548 167 11
549 167 502
550 167 980
551 167 45
552 166 389
553 166 325
554 166 764
555 166 859
556 165 654
557 165 193
558 165 948
559 165 489
560 165 246
561 165 53
562 164 989
563 164 778
564 163 382
565 163 982
566 163 876
567 162 90
568 162 467
569 161 34
570 160 643
571 160 826
572 160 15
573 159 253
574 159 731
575 159 229
576 158 882
577 158 234
578 158 780
579 158 930
580 157 931
581 157 931
582 157 281
583 157 729
584 157 354
585 157 542
586 156 147
587 156 58
588 156 384
589 156 304
590 156 278
591 155 798
592 155 814
593 155 791
594 155 312
595 155 227
596 155 275
597 155 264
598 155 919
599 153 760
600 153 86
601 153 312
602 153 977
603 152 533
604 151 466
605 151 33
606 151 748
607 150 288
608 150 247
609 150 183
610 150 644
611 150 642
612 149 226
613 149 724
614 149 825
615 149 695
616 149 605
617 149 933
618 148 188
619 148 251
620 148 369
621 148 186
622 148 868
623 147 204
624 147 528
625 147 894
626 147 931
627 147 58
628 147 316
629 147 756
630 146 404
631 146 411
632 146 392
633 145 224
634 145 803
635 145 565
636 145 95
637 144 180
638 144 928
639 143 468
640 143 611
641 143 539
642 143 523
643 142 364
644 141 694
645 140 717
646 140 290
647 140 459
648 139 242
649 139 458
650 139 715
651 139 657
652 138 81
653 138 709
654 138 429
655 138 650
656 137 399
657 137 987
658 137 859
659 137 211
660 137 21
661 137 241
662 136 400
663 136 603
664 135 898
665 135 97
666 135 458
667 134 863
668 134 410
669 133 939
670 133 180
671 133 969
672 133 283
673 132 595
674 132 83
675 131 640
676 131 883
677 130 749
678 130 258
679 130 61
680 128 70
681 128 480
682 126 581
683 126 385
684 126 240
685 125 77
686 124 984
687 124 63
688 124 93
689 124 193
690 124 312
691 124 257
692 122 549
693 122 436
694 122 583
695 121 894
696 121 512
697 120 505
698 120 692
699 120 464
700 120 888
701 120 610
702 120 742
703 119 419
704 119 397
705 119 770
706 118 72
707 118 909
708 118 839
709 118 864
710 118 921
711 118 511
712 118 562
713 117 141
714 117 754
715 117 450
716 117 87
717 117 6
718 117 712
719 116 470
720 116 936
721 116 474
722 115 681
723 115 551
724 114 873
725 114 779
726 114 618
727 113 848
728 113 465
729 113 468
730 113 984
731 113 388
732 112 989
733 112 493
734 112 697
735 112 922
736 112 754
737 111 507
738 111 542
739 111 961
740 110 545
741 110 444
742 110 340
743 109 104
744 109 118
745 109 199
746 109 259
747 108 530
748 108 752
749 107 889
750 107 181
751 107 27
752 107 104
753 107 796
754 107 242
755 107 427
756 106 247
757 105 6
758 105 550
759 105 806
760 105 969
761 104 40
762 104 178
763 104 178
764 104 951
765 103 237
766 103 565
767 103 20
768 103 529
769 102 290
770 102 350
771 102 532
772 101 198
773 101 303
774 101 92
775 100 644
776 100 213
777 100 81
778 100 470
779 100 374
780 100 343
781 100 245
782 100 621
783 99 116
784 99 54
785 99 401
786 99 93
787 99 555
788 99 775
789 98 837
790 98 190
791 98 337
792 98 852
793 98 949
794 97 987
795 97 240
796 96 935
797 96 805
798 96 130
799 96 297
800 95 221
801 95 480
802 95 846
803 95 39
804 94 218
805 94 71
806 94 497
807 93 495
808 93 783
809 93 513
810 93 836
811 93 4
812 92 916
813 92 927
814 92 801
815 92 678
816 92 62
817 92 42
818 92 121
819 91 151
820 91 542
821 91 138
822 91 296
823 90 75
824 90 438
825 90 229
826 90 140
827 90 135
828 90 312
829 90 353
830 89 691
831 89 237
832 89 39
833 89 380
834 89 956
835 89 86
836 88 993
837 88 485
838 88 998
839 88 600
840 87 437
841 87 389
842 87 72
843 87 175
844 87 857
845 87 778
846 86 868
847 86 608
848 86 222
849 86 946
850 85 627
851 85 277
852 85 703
853 84 179
854 84 669
855 84 164
856 83 548
857 83 641
858 82 306
859 82 537
860 82 223
861 82 144
862 81 166
863 81 372
864 81 261
865 81 757
866 81 73
867 80 553
868 80 504
869 79 689
870 79 625
871 79 442
872 79 695
873 79 152
874 78 487
875 77 459
876 76 752
877 76 915
878 76 411
879 76 885
880 76 53
881 76 652
882 76 336
883 75 21
884 75 595
885 75 769
886 75 463
887 75 990
888 74 906
889 74 324
890 74 621
891 74 189
892 74 969
893 74 820
894 74 453
895 73 562
896 73 840
897 73 363
898 72 817
899 72 388
900 72 941
901 72 279
902 71 1
903 71 509
904 71 961
905 71 350
906 71 908
907 70 577
908 69 1
909 69 426
910 69 220
911 69 494
912 68 171
913 68 897
914 67 148
915 67 984
916 66 564
917 66 398
918 66 871
919 65 854
920 64 223
921 64 25
922 64 816
923 63 83
924 63 423
925 63 133
926 62 557
927 62 444
928 62 895
929 61 581
930 61 354
931 61 320
932 60 58
933 59 760
934 59 324
935 58 104
936 58 877
937 58 874
938 58 732
939 58 66
940 58 668
941 57 424
942 57 137
943 57 923
944 57 264
945 57 822
946 56 382
947 56 803
948 56 200
949 55 633
950 55 36
951 55 643
952 55 457
953 55 94
954 55 54
955 54 495
956 54 673
957 54 68
958 53 591
959 53 784
960 52 649
961 52 274
962 52 593
963 52 43
964 51 446
965 51 390
966 51 653
967 51 485
968 51 760
969 50 864
970 50 73
971 50 212
972 50 794
973 48 383
974 48 687
975 48 240
976 48 718
977 48 714
978 48 493
979 47 521
980 47 341
981 47 34
982 47 762
983 47 774
984 46 195
985 46 371
986 46 356
987 46 220
988 45 390
989 45 601
990 45 675
991 44 484
992 44 67
993 43 69
994 43 736
995 43 231
996 42 801
997 41 863
998 41 985
999 41 504
1000 40 713
